n=214;
k_min=7;
k_max=7;M=[| 0.8836, 0.0, 0.0, 0.032399999999999984, 0.0, 0.0, 0.01959999999999995
 | 1.0, 0.0, 0.0, 0.0484, 0.0, 0.0, 0.01959999999999995
 | 1.0, 0.0, 0.0, 0.0484, 0.0, 0.0, 0.01959999999999995
 | 1.0, 0.0, 0.0, 0.0484, 0.0, 0.0, 0.01959999999999995
 | 0.9216, 0.0, 0.0, 0.0484, 0.0, 0.0, 0.01959999999999995
 | 0.9604, 0.0, 0.0, 0.0484, 0.0, 0.0, 0.01959999999999995
 | 0.81, 0.0, 0.0, 0.0484, 0.0, 0.0, 0.01959999999999995
 | 0.9216, 0.0, 0.0, 0.0484, 0.0, 0.0, 0.01959999999999995
 | 1.0, 0.0, 0.0, 0.0484, 0.0, 0.0, 0.01959999999999995
 | 0.7744, 0.0, 0.0, 0.0484, 0.0, 0.0, 0.01959999999999995
 | 0.8464, 0.0, 0.0, 0.0484, 0.0, 0.0, 0.01959999999999995
 | 1.0, 0.0, 0.0, 0.0484, 0.0, 0.0, 0.01959999999999995
 | 0.8836, 0.0, 0.0, 0.0484, 0.0, 0.0, 0.01959999999999995
 | 1.0, 0.0, 0.0, 0.0484, 0.0, 0.0, 0.01959999999999995
 | 1.0, 0.0, 0.0, 0.0484, 0.0, 0.0, 0.01959999999999995
 | 1.0, 0.0, 0.0, 0.0484, 0.0, 0.0, 0.01959999999999995
 | 1.0, 0.0, 0.0, 0.0484, 0.0, 0.0, 0.01959999999999995
 | 0.9604, 0.0, 0.0, 0.032399999999999984, 0.0, 0.0, 0.01959999999999995
 | 0.9604, 0.0, 0.0, 0.032399999999999984, 0.0, 0.0, 0.01959999999999995
 | 0.9604, 0.0, 0.0, 0.0484, 0.0, 0.0, 0.01959999999999995
 | 1.0, 0.0, 0.0, 0.0484, 0.0, 0.0, 0.01959999999999995
 | 0.9604, 0.0, 0.0, 0.032399999999999984, 0.0, 0.0, 0.01959999999999995
 | 1.0, 0.0, 0.0, 0.0484, 0.0, 0.0, 0.01959999999999995
 | 1.0, 0.0, 0.0, 0.0484, 0.0, 0.0, 0.01959999999999995
 | 0.8836, 0.0, 0.0, 0.0484, 0.0, 0.0, 0.01959999999999995
 | 1.0, 0.0, 0.0, 0.0484, 0.0, 0.0, 0.01959999999999995
 | 0.8836, 0.0, 0.0, 0.0484, 0.0, 0.0, 0.01959999999999995
 | 1.0, 0.0, 0.0, 0.0484, 0.0, 0.0, 0.01959999999999995
 | 1.0, 0.0, 0.0, 0.0484, 0.0, 0.0, 0.01959999999999995
 | 0.8464, 0.0, 0.0, 0.0484, 0.0, 0.0, 0.01959999999999995
 | 1.0, 0.0, 0.0, 0.0484, 0.0, 0.0, 0.01959999999999995
 | 1.0, 0.0, 0.0, 0.0484, 0.0, 0.0, 0.01959999999999995
 | 1.0, 0.0, 0.0, 0.0484, 0.0, 0.0, 0.01959999999999995
 | 1.0, 0.0, 0.0, 0.0484, 0.0, 0.0, 0.01959999999999995
 | 1.0, 0.0, 0.0, 0.0484, 0.0, 0.0, 0.01959999999999995
 | 0.8836, 0.0, 0.0, 0.0484, 0.0, 0.0, 0.01959999999999995
 | 1.0, 0.0, 0.0, 0.032399999999999984, 0.0, 0.0, 0.01959999999999995
 | 1.0, 0.0, 0.0, 0.0484, 0.0, 0.0, 0.01959999999999995
 | 0.9604, 0.0, 0.0, 0.032399999999999984, 0.0, 0.0, 0.01959999999999995
 | 0.9604, 0.0, 0.0, 0.032399999999999984, 0.0, 0.0, 0.01959999999999995
 | 1.0, 0.0, 0.0, 0.0484, 0.0, 0.0, 0.01959999999999995
 | 1.0, 0.0, 0.0, 0.0484, 0.0, 0.0, 0.01959999999999995
 | 0.7396, 0.0, 0.0, 0.0484, 0.0, 0.0, 0.01959999999999995
 | 0.9604, 0.0, 0.0, 0.032399999999999984, 0.0, 0.0, 0.01959999999999995
 | 1.0, 0.0, 0.0, 0.0484, 0.0, 0.0, 0.01959999999999995
 | 0.9216, 0.0, 0.0, 0.032399999999999984, 0.0, 0.0, 0.01959999999999995
 | 1.0, 0.0, 0.0, 0.0484, 0.0, 0.0, 0.01959999999999995
 | 1.0, 0.0, 0.0, 0.032399999999999984, 0.0, 0.0, 0.01959999999999995
 | 0.8836, 0.0, 0.0, 0.032399999999999984, 0.0, 0.0, 0.01959999999999995
 | 0.8836, 0.0, 0.0, 0.032399999999999984, 0.0, 0.0, 0.01959999999999995
 | 0.9216, 0.0, 0.0, 0.032399999999999984, 0.0, 0.0, 0.01959999999999995
 | 0.8836, 0.0, 0.0, 0.040000000000000036, 0.0, 0.0, 0.01959999999999995
 | 0.81, 0.0, 0.0, 0.0484, 0.0, 0.0, 0.01959999999999995
 | 1.0, 0.0, 0.0, 0.0484, 0.0, 0.0, 0.01959999999999995
 | 1.0, 0.0, 0.0, 0.0484, 0.0, 0.0, 0.01959999999999995
 | 0.8836, 0.0, 0.0, 0.0484, 0.0, 0.0, 0.01959999999999995
 | 1.0, 0.0, 0.0, 0.0484, 0.0, 0.0, 0.01959999999999995
 | 1.0, 0.0, 0.0, 0.0484, 0.0, 0.0, 0.01959999999999995
 | 0.9604, 0.0, 0.0, 0.0484, 0.0, 0.0, 0.01959999999999995
 | 1.0, 0.0, 0.0, 0.0484, 0.0, 0.0, 0.01959999999999995
 | 0.8836, 0.0, 0.0, 0.0484, 0.0, 0.0, 0.01959999999999995
 | 0.9604, 0.0, 0.0, 0.032399999999999984, 0.0, 0.0, 0.01959999999999995
 | 0.9216, 0.0, 0.0, 0.032399999999999984, 0.0, 0.0, 0.01959999999999995
 | 0.9604, 0.0, 0.0, 0.032399999999999984, 0.0, 0.0, 0.01959999999999995
 | 0.8836, 0.0, 0.0, 0.032399999999999984, 0.0, 0.0, 0.01959999999999995
 | 0.9216, 0.0, 0.0, 0.032399999999999984, 0.0, 0.0, 0.01959999999999995
 | 0.8464, 0.0, 0.0, 0.032399999999999984, 0.0, 0.0, 0.01959999999999995
 | 0.8464, 0.0, 0.0, 0.032399999999999984, 0.0, 0.0, 0.01959999999999995
 | 0.8464, 0.0, 0.0, 0.032399999999999984, 0.0, 0.0, 0.01959999999999995
 | 0.8836, 0.0, 0.0, 0.032399999999999984, 0.0, 0.0, 0.01959999999999995
 | 0.7744, 0.0, 0.0, 0.08999999999999997, 0.0, 0.0, 0.01959999999999995
 | 1.0, 0.0, 0.0, 0.0484, 0.0, 0.0, 0.01959999999999995
 | 1.0, 0.0, 0.0, 0.0484, 0.0, 0.0, 0.01959999999999995
 | 0.9604, 0.0, 0.0, 0.0484, 0.0, 0.0, 0.01959999999999995
 | 1.0, 0.0, 0.0, 0.0484, 0.0, 0.0, 0.01959999999999995
 | 1.0, 0.0, 0.0, 0.0484, 0.0, 0.0, 0.01959999999999995
 | 1.0, 0.0, 0.0, 0.0484, 0.0, 0.0, 0.01959999999999995
 | 0.9604, 0.0, 0.0, 0.0484, 0.0, 0.0, 0.01959999999999995
 | 1.0, 0.0, 0.0, 0.0484, 0.0, 0.0, 0.01959999999999995
 | 1.0, 0.0, 0.0, 0.0484, 0.0, 0.0, 0.01959999999999995
 | 1.0, 0.0, 0.0, 0.0484, 0.0, 0.0, 0.01959999999999995
 | 0.9604, 0.0, 0.0, 0.0484, 0.0, 0.0, 0.01959999999999995
 | 0.8836, 0.0, 0.0, 0.0484, 0.0, 0.0, 0.01959999999999995
 | 0.9604, 0.0, 0.0, 0.0484, 0.0, 0.0, 0.01959999999999995
 | 0.4356, 0.0, 0.0, 0.2916000000000001, 0.0, 0.0, 0.01959999999999995
 | 1.0, 0.0, 0.0, 0.0484, 0.0, 0.0, 0.01959999999999995
 | 1.0, 0.0, 0.0, 0.0484, 0.0, 0.0, 0.01959999999999995
 | 1.0, 0.0, 0.0, 0.0484, 0.0, 0.0, 0.01959999999999995
 | 1.0, 0.0, 0.0, 0.0484, 0.0, 0.0, 0.01959999999999995
 | 0.8464, 0.0, 0.0, 0.0484, 0.0, 0.0, 0.01959999999999995
 | 1.0, 0.0, 0.0, 0.0484, 0.0, 0.0, 0.01959999999999995
 | 0.8464, 0.0, 0.0, 0.0484, 0.0, 0.0, 0.01959999999999995
 | 0.8464, 0.0, 0.0, 0.0484, 0.0, 0.0, 0.01959999999999995
 | 1.0, 0.0, 0.0, 0.0484, 0.0, 0.0, 0.01959999999999995
 | 0.7396, 0.0, 0.0, 0.0484, 0.0, 0.0, 0.01959999999999995
 | 0.8836, 0.0, 0.0, 0.0484, 0.0, 0.0, 0.01959999999999995
 | 1.0, 0.0, 0.0, 0.0484, 0.0, 0.0, 0.01959999999999995
 | 0.8836, 0.0, 0.0, 0.0484, 0.0, 0.0, 0.01959999999999995
 | 0.8836, 0.0, 0.0, 0.0484, 0.0, 0.0, 0.01959999999999995
 | 0.9216, 0.0, 0.0, 0.0484, 0.0, 0.0, 0.01959999999999995
 | 0.8836, 0.0, 0.0, 0.0484, 0.0, 0.0, 0.01959999999999995
 | 0.8836, 0.0, 0.0, 0.0484, 0.0, 0.0, 0.01959999999999995
 | 0.8836, 0.0, 0.0, 0.0484, 0.0, 0.0, 0.01959999999999995
 | 1.0, 0.0036000000000000476, 0.0036000000000000476, 0.01959999999999995, 0.0, 0.0, 0.01959999999999995
 | 0.8836, 0.0, 0.0, 0.032399999999999984, 0.0, 0.0, 0.01959999999999995
 | 0.01959999999999995, 0.9604, 0.14439999999999997, 0.0, 0.01959999999999995, 0.0, 0.01959999999999995
 | 0.01959999999999995, 0.9216, 0.14439999999999997, 0.0, 0.01959999999999995, 0.0, 0.01959999999999995
 | 0.01959999999999995, 0.9604, 0.12959999999999994, 0.0, 0.01959999999999995, 0.0, 0.01959999999999995
 | 0.057599999999999985, 0.12959999999999994, 1.0, 0.0, 0.01959999999999995, 0.0, 0.01959999999999995
 | 0.057599999999999985, 0.10240000000000005, 0.8836, 0.0, 0.01959999999999995, 0.0, 0.032399999999999984
 | 0.01959999999999995, 1.0, 0.12959999999999994, 0.0, 0.01959999999999995, 0.0, 0.01959999999999995
 | 0.01959999999999995, 1.0, 0.12959999999999994, 0.0, 0.01959999999999995, 0.0, 0.01959999999999995
 | 0.01959999999999995, 1.0, 0.12959999999999994, 0.0, 0.01959999999999995, 0.0, 0.01959999999999995
 | 0.9216, 0.0, 0.0, 0.0484, 0.0, 0.0, 0.01959999999999995
 | 0.9216, 0.0, 0.0, 0.0484, 0.0, 0.0, 0.01959999999999995
 | 0.8836, 0.0, 0.0, 0.0484, 0.0, 0.0, 0.01959999999999995
 | 0.9216, 0.0, 0.0, 0.0484, 0.0, 0.0, 0.01959999999999995
 | 0.8464, 0.0, 0.0, 0.0484, 0.0, 0.0, 0.01959999999999995
 | 1.0, 0.0, 0.0, 0.0484, 0.0, 0.0, 0.01959999999999995
 | 1.0, 0.0, 0.0, 0.0484, 0.0, 0.0, 0.01959999999999995
 | 0.9216, 0.0, 0.0, 0.0484, 0.0, 0.0, 0.01959999999999995
 | 1.0, 0.0, 0.0, 0.0484, 0.0, 0.0, 0.01959999999999995
 | 0.7744, 0.0, 0.0, 0.0484, 0.0, 0.0, 0.01959999999999995
 | 1.0, 0.0, 0.0, 0.0484, 0.0, 0.0, 0.01959999999999995
 | 0.8836, 0.0, 0.0, 0.0484, 0.0, 0.0, 0.01959999999999995
 | 1.0, 0.0, 0.0, 0.0484, 0.0, 0.0, 0.01959999999999995
 | 0.9604, 0.0, 0.0, 0.0484, 0.0, 0.0, 0.01959999999999995
 | 1.0, 0.0, 0.00039999999999995595, 0.032399999999999984, 0.0, 0.0, 0.025599999999999956
 | 1.0, 0.0, 0.00039999999999995595, 0.032399999999999984, 0.0, 0.0, 0.025599999999999956
 | 0.5776, 0.040000000000000036, 0.12959999999999994, 0.0, 0.01959999999999995, 0.0, 0.032399999999999984
 | 0.057599999999999985, 0.12959999999999994, 1.0, 0.0, 0.01959999999999995, 0.0, 0.01959999999999995
 | 0.01959999999999995, 0.9216, 0.14439999999999997, 0.0, 0.01959999999999995, 0.0, 0.01959999999999995
 | 0.9216, 0.0, 0.0, 0.0484, 0.0, 0.0, 0.01959999999999995
 | 1.0, 0.0, 0.0, 0.0484, 0.0, 0.0, 0.01959999999999995
 | 1.0, 0.0, 0.0, 0.0484, 0.0, 0.0, 0.01959999999999995
 | 0.9604, 0.0, 0.0, 0.0484, 0.0, 0.0, 0.01959999999999995
 | 0.8464, 0.0, 0.0, 0.0484, 0.0, 0.0, 0.01959999999999995
 | 1.0, 0.0, 0.0, 0.0484, 0.0, 0.0, 0.01959999999999995
 | 0.9604, 0.0, 0.0, 0.0484, 0.0, 0.0, 0.01959999999999995
 | 0.9604, 0.0, 0.0, 0.0484, 0.0, 0.0, 0.01959999999999995
 | 1.0, 0.0, 0.0, 0.0484, 0.0, 0.0, 0.01959999999999995
 | 0.9216, 0.0, 0.0, 0.0484, 0.0, 0.0, 0.01959999999999995
 | 0.8464, 0.0, 0.0, 0.0484, 0.0, 0.0, 0.01959999999999995
 | 0.9604, 0.0, 0.0, 0.0484, 0.0, 0.0, 0.01959999999999995
 | 0.9604, 0.0, 0.0, 0.0484, 0.0, 0.0, 0.01959999999999995
 | 0.8464, 0.0, 0.0, 0.0484, 0.0, 0.0, 0.01959999999999995
 | 1.0, 0.0, 0.0, 0.0484, 0.0, 0.0, 0.01959999999999995
 | 0.9604, 0.0, 0.0, 0.0484, 0.0, 0.0, 0.01959999999999995
 | 0.8836, 0.0, 0.0, 0.0484, 0.0, 0.0, 0.01959999999999995
 | 1.0, 0.0, 0.0, 0.0484, 0.0, 0.0, 0.01959999999999995
 | 0.9604, 0.0, 0.0, 0.0484, 0.0, 0.0, 0.01959999999999995
 | 0.9604, 0.0, 0.0, 0.032399999999999984, 0.0, 0.0, 0.01959999999999995
 | 0.8836, 0.0, 0.0, 0.0484, 0.0, 0.0, 0.01959999999999995
 | 0.9604, 0.0, 0.0, 0.0484, 0.0, 0.0, 0.01959999999999995
 | 0.8836, 0.0, 0.0, 0.0484, 0.0, 0.0, 0.01959999999999995
 | 1.0, 0.0, 0.0, 0.0484, 0.0, 0.0, 0.01959999999999995
 | 1.0, 0.0, 0.0, 0.0484, 0.0, 0.0, 0.01959999999999995
 | 1.0, 0.0, 0.0, 0.032399999999999984, 0.0, 0.0, 0.01959999999999995
 | 1.0, 0.0, 0.0, 0.032399999999999984, 0.0, 0.0, 0.01959999999999995
 | 0.8464, 0.0, 0.0, 0.032399999999999984, 0.0, 0.0, 0.01959999999999995
 | 0.9216, 0.0, 0.0, 0.032399999999999984, 0.0, 0.0, 0.01959999999999995
 | 0.8464, 0.0, 0.0, 0.0484, 0.0, 0.0, 0.01959999999999995
 | 0.9604, 0.0, 0.0, 0.032399999999999984, 0.0, 0.0, 0.01959999999999995
 | 0.040000000000000036, 0.0, 0.0, 0.9604, 0.0484, 0.0, 0.01959999999999995
 | 0.9216, 0.01959999999999995, 0.16000000000000003, 0.0016000000000000458, 0.01959999999999995, 0.0, 0.01959999999999995
 | 0.12959999999999994, 0.12959999999999994, 1.0, 0.0, 0.01959999999999995, 0.0, 0.01959999999999995
 | 0.12959999999999994, 0.12959999999999994, 1.0, 0.0, 0.01959999999999995, 0.0, 0.01959999999999995
 | 0.057599999999999985, 0.12959999999999994, 0.9604, 0.0, 0.01959999999999995, 0.0, 0.01959999999999995
 | 0.14439999999999997, 0.01959999999999995, 1.0, 0.0, 0.040000000000000036, 0.0, 0.12959999999999994
 | 0.057599999999999985, 0.12959999999999994, 1.0, 0.0, 0.01959999999999995, 0.0, 0.01959999999999995
 | 0.057599999999999985, 0.12959999999999994, 0.9604, 0.0, 0.01959999999999995, 0.0, 0.01959999999999995
 | 0.040000000000000036, 0.01959999999999995, 0.040000000000000036, 0.040000000000000036, 1.0, 0.0, 0.040000000000000036
 | 0.040000000000000036, 0.01959999999999995, 0.040000000000000036, 0.040000000000000036, 1.0, 0.0, 0.040000000000000036
 | 0.057599999999999985, 0.12959999999999994, 0.9604, 0.0, 0.01959999999999995, 0.0, 0.01959999999999995
 | 1.0, 0.01959999999999995, 0.12959999999999994, 0.0016000000000000458, 0.01959999999999995, 0.0, 0.01959999999999995
 | 0.057599999999999985, 0.12959999999999994, 0.9604, 0.0, 0.01959999999999995, 0.0, 0.01959999999999995
 | 1.0, 0.0, 0.00039999999999995595, 0.032399999999999984, 0.0, 0.0, 0.025599999999999956
 | 1.0, 0.0, 0.00039999999999995595, 0.032399999999999984, 0.0, 0.0, 0.025599999999999956
 | 0.9604, 0.0, 0.00039999999999995595, 0.032399999999999984, 0.0, 0.0, 0.032399999999999984
 | 0.9604, 0.0, 0.00039999999999995595, 0.032399999999999984, 0.0, 0.0, 0.032399999999999984
 | 0.11560000000000004, 0.0, 0.0484, 0.01959999999999995, 0.0036000000000000476, 0.0, 1.0
 | 1.0, 0.01959999999999995, 0.14439999999999997, 0.0, 0.040000000000000036, 0.0, 0.2916000000000001
 | 0.057599999999999985, 0.08999999999999997, 0.8836, 0.0, 0.01959999999999995, 0.0, 0.040000000000000036
 | 0.057599999999999985, 0.10240000000000005, 0.9216, 0.0, 0.01959999999999995, 0.0, 0.032399999999999984
 | 0.1936, 0.01959999999999995, 0.12959999999999994, 0.0, 0.040000000000000036, 0.0, 0.5776
 | 0.0484, 0.0, 0.0, 0.9604, 0.040000000000000036, 0.0, 0.01959999999999995
 | 0.0484, 0.0, 0.0, 1.0, 0.040000000000000036, 0.0, 0.01959999999999995
 | 0.8464, 0.0, 0.0, 0.0484, 0.0, 0.0, 0.01959999999999995
 | 0.6724, 0.0, 0.0, 0.032399999999999984, 0.0, 0.0, 0.01959999999999995
 | 0.2916000000000001, 0.01959999999999995, 0.057599999999999985, 0.0016000000000000458, 0.032399999999999984, 0.0, 0.057599999999999985
 | 0.4623999999999999, 0.0, 0.0484, 0.01959999999999995, 0.0036000000000000476, 0.0, 0.25
 | 0.2916000000000001, 0.01959999999999995, 0.12959999999999994, 0.0, 0.040000000000000036, 0.0, 1.0
 | 0.2916000000000001, 0.01959999999999995, 0.12959999999999994, 0.0, 0.040000000000000036, 0.0, 1.0
 | 0.2116, 0.01959999999999995, 0.12959999999999994, 0.0, 0.040000000000000036, 0.0, 1.0
 | 0.2116, 0.01959999999999995, 0.12959999999999994, 0.0, 0.040000000000000036, 0.0, 1.0
 | 0.2916000000000001, 0.01959999999999995, 0.12959999999999994, 0.0, 0.040000000000000036, 0.0, 1.0
 | 0.2916000000000001, 0.01959999999999995, 0.12959999999999994, 0.0, 0.040000000000000036, 0.0, 1.0
 | 0.2916000000000001, 0.01959999999999995, 0.12959999999999994, 0.0, 0.040000000000000036, 0.0, 1.0
 | 0.2916000000000001, 0.01959999999999995, 0.12959999999999994, 0.0, 0.040000000000000036, 0.0, 1.0
 | 0.2916000000000001, 0.01959999999999995, 0.12959999999999994, 0.0, 0.040000000000000036, 0.0, 1.0
 | 0.2916000000000001, 0.01959999999999995, 0.12959999999999994, 0.0, 0.040000000000000036, 0.0, 1.0
 | 0.14439999999999997, 0.01959999999999995, 0.81, 0.0, 0.040000000000000036, 0.0, 0.12959999999999994
 | 0.2916000000000001, 0.01959999999999995, 0.12959999999999994, 0.0, 0.040000000000000036, 0.0, 1.0
 | 0.2116, 0.01959999999999995, 0.12959999999999994, 0.0, 0.040000000000000036, 0.0, 1.0
 | 0.2916000000000001, 0.01959999999999995, 0.12959999999999994, 0.0, 0.040000000000000036, 0.0, 1.0
 | 0.2116, 0.01959999999999995, 0.12959999999999994, 0.0, 0.040000000000000036, 0.0, 1.0
 | 0.2116, 0.01959999999999995, 0.12959999999999994, 0.0, 0.040000000000000036, 0.0, 1.0
 | 0.1936, 0.01959999999999995, 0.11560000000000004, 0.00039999999999995595, 0.0484, 0.0, 0.8836
 | 0.2916000000000001, 0.01959999999999995, 0.12959999999999994, 0.0, 0.040000000000000036, 0.0, 1.0
 | 0.2916000000000001, 0.01959999999999995, 0.12959999999999994, 0.0, 0.040000000000000036, 0.0, 1.0
 | 0.2116, 0.01959999999999995, 0.12959999999999994, 0.0, 0.040000000000000036, 0.0, 1.0
 | 0.2116, 0.01959999999999995, 0.12959999999999994, 0.0, 0.040000000000000036, 0.0, 1.0
 | 0.2116, 0.01959999999999995, 0.12959999999999994, 0.0, 0.040000000000000036, 0.0, 1.0
 | 0.2116, 0.01959999999999995, 0.12959999999999994, 0.0, 0.040000000000000036, 0.0, 1.0 |];
 P=[1, 1, 1, 1, 1, 1, 1, 1, 1, 1, 1, 1, 1, 1, 1, 1, 1, 1, 1, 1, 1, 1, 1, 1, 1, 1, 1, 1, 1, 1, 1, 1, 1, 1, 1, 1, 1, 1, 1, 1, 1, 1, 1, 1, 1, 1, 1, 1, 1, 1, 1, 1, 1, 1, 1, 1, 1, 1, 1, 1, 1, 1, 1, 1, 1, 1, 1, 1, 1, 1, 1, 1, 1, 1, 1, 1, 1, 1, 1, 1, 1, 1, 1, 1, 1, 1, 1, 1, 1, 1, 1, 1, 1, 1, 1, 1, 1, 1, 1, 1, 1, 1, 1, 1, 1, 6, 6, 6, 2, 2, 6, 6, 6, 1, 1, 1, 1, 1, 1, 1, 1, 1, 1, 1, 1, 1, 1, 3, 3, 3, 2, 6, 1, 1, 1, 1, 1, 1, 1, 1, 1, 1, 1, 1, 1, 1, 1, 1, 1, 1, 1, 1, 1, 1, 1, 1, 1, 1, 1, 1, 1, 1, 1, 7, 3, 2, 2, 2, 2, 2, 2, 4, 4, 2, 3, 2, 3, 3, 3, 3, 5, 3, 2, 2, 5, 7, 7, 1, 3, 3, 3, 5, 5, 5, 5, 5, 5, 5, 5, 5, 5, 2, 5, 5, 5, 5, 5, 5, 5, 5, 5, 5, 5, 5 ];